NAME : LPS-n26-m398
COMMENT : (Lartu-Peter-Santi Plot, instance 9598 out of 39200. 26 customers.)
TYPE : CVRP
DIMENSION : 26
EDGE_WEIGHT_TYPE : EUC_2D
CAPACITY : 76
NODE_COORD_SECTION
 1 100 84
 2 23 68
 3 100 62
 4 82 24
 5 35 22
 6 34 21
 7 60 62
 8 29 58
 9 70 90
 10 66 86
 11 1 13
 12 46 42
 13 95 44
 14 95 58
 15 65 19
 16 3 49
 17 26 11
 18 93 54
 19 92 17
 20 39 92
 21 71 96
 22 48 100
 23 21 55
 24 63 83
 25 24 44
 26 88 46
DEMAND_SECTION
1 0
2 35
3 64
4 24
5 68
6 69
7 20
8 33
9 45
10 47
11 18
12 23
13 4
14 74
15 44
16 44
17 6
18 14
19 75
20 30
21 71
22 42
23 22
24 72
25 53
26 44
DEPOT_SECTION
 1
 -1
EOF
